NAME: GRASP_43_5
TYPE: TSP
COMMENT: line_43_5
DIMENSION: 43
EDGE_WEIGHT_TYPE: EUC_2D
NODE_COORD_SECTION
1 4444 1331
2 1297 4195
3 1846 2017
4 232 1633
5 3928 77
6 3675 3853
7 4333 714
8 3413 3846
9 4001 4744
10 1748 666
11 1233 2816
12 1216 1424
13 1747 3099
14 4237 647
15 176 2355
16 4240 3560
17 4044 4622
18 1059 20
19 2338 4083
20 4398 248
21 1426 4754
22 736 1338
23 2112 3425
24 376 494
25 3178 3691
26 4221 3428
27 233 1976
28 3212 389
29 4648 1609
30 3380 2845
31 1137 1186
32 926 2329
33 1595 4860
34 4962 112
35 4929 2420
36 1781 3189
37 2562 2663
38 1032 3907
39 3472 7
40 4183 2285
41 1831 3852
42 1899 2014
43 3082 4527
